nK = 2166;
nT = 8;
nI = 21;
L = 35;
TT = 445;
np = 1;
nc = 3;
b = [57, 52, 22, 55, 23, 24, 56, 44, 51, 26, 38, 63, 51, 61, 49, 40, 32, 37, 28, 53, 67];
d = [126, 130, 63, 99, 144, 71, 138, 106, 89, 116, 91, 136, 143, 146, 102, 86, 90, 57, 136, 137, 110];
m = [1.1, 2.3, 1.8, 2.2, 2.5, 1, 1.9, 2.1, 2.5, 1.5, 1, 2.5, 1, 2, 2, 1.8, 1.1, 1.6, 1.4, 1.8, 1.5];
pt = [0.23, 0.3, 0.2, 0.28, 0.27, 0.27, 0.29, 0.27];
st = [12.19, 15.9, 11.8, 13.16, 11.61, 12.15, 12.18, 12.96];
arc = {<1, 0, 1, 1, 0, 0, 0, [1, 1, 1, 1, 1, 1, 1, 1]>, <2, 1, 2, 1, 0, 0, 0, [1, 1, 1, 1, 1, 1, 1, 1]>, <3, 2, 3, 1, 0, 0, 0, [1, 1, 1, 1, 1, 1, 1, 1]>, <4, 3, 4, 1, 0, 0, 0, [1, 1, 1, 1, 1, 1, 1, 1]>, <5, 4, 5, 1, 0, 0, 0, [1, 1, 1, 1, 1, 1, 1, 1]>, <6, 5, 6, 1, 0, 0, 0, [1, 1, 1, 1, 1, 1, 1, 1]>, <7, 6, 7, 1, 0, 0, 0, [1, 1, 1, 1, 1, 1, 1, 1]>, <8, 7, 8, 1, 0, 0, 0, [1, 1, 1, 1, 1, 1, 1, 1]>, <9, 8, 9, 1, 0, 0, 0, [1, 1, 1, 1, 1, 1, 1, 1]>, <10, 9, 10, 1, 0, 0, 0, [1, 1, 1, 1, 1, 1, 1, 1]>, <11, 10, 11, 1, 0, 0, 0, [1, 1, 1, 1, 1, 1, 1, 1]>, <12, 11, 12, 1, 0, 0, 0, [1, 1, 1, 1, 1, 1, 1, 1]>, <13, 12, 13, 1, 0, 0, 0, [1, 1, 1, 1, 1, 1, 1, 1]>, <14, 13, 14, 1, 0, 0, 0, [1, 1, 1, 1, 1, 1, 1, 1]>, <15, 14, 15, 1, 0, 0, 0, [1, 1, 1, 1, 1, 1, 1, 1]>, <16, 15, 16, 1, 0, 0, 0, [1, 1, 1, 1, 1, 1, 1, 1]>, <17, 16, 17, 1, 0, 0, 0, [1, 1, 1, 1, 1, 1, 1, 1]>, <18, 17, 18, 1, 0, 0, 0, [1, 1, 1, 1, 1, 1, 1, 1]>, <19, 18, 19, 1, 0, 0, 0, [1, 1, 1, 1, 1, 1, 1, 1]>, <20, 19, 20, 1, 0, 0, 0, [1, 1, 1, 1, 1, 1, 1, 1]>, <21, 20, 21, 1, 0, 0, 0, [1, 1, 1, 1, 1, 1, 1, 1]>, <22, 21, 22, 1, 0, 0, 0, [1, 1, 1, 1, 1, 1, 1, 1]>, <23, 22, 23, 1, 0, 0, 0, [1, 1, 1, 1, 1, 1, 1, 1]>, <24, 23, 24, 1, 0, 0, 0, [1, 1, 1, 1, 1, 1, 1, 1]>, <25, 24, 25, 1, 0, 0, 0, [1, 1, 1, 1, 1, 1, 1, 1]>, <26, 25, 26, 1, 0, 0, 0, [1, 1, 1, 1, 1, 1, 1, 1]>, <27, 26, 27, 1, 0, 0, 0, [1, 1, 1, 1, 1, 1, 1, 1]>, <28, 27, 28, 1, 0, 0, 0, [1, 1, 1, 1, 1, 1, 1, 1]>, <29, 28, 29, 1, 0, 0, 0, [1, 1, 1, 1, 1, 1, 1, 1]>, <30, 29, 30, 1, 0, 0, 0, [1, 1, 1, 1, 1, 1, 1, 1]>, <31, 30, 31, 1, 0, 0, 0, [1, 1, 1, 1, 1, 1, 1, 1]>, <32, 31, 32, 1, 0, 0, 0, [1, 1, 1, 1, 1, 1, 1, 1]>, <33, 32, 33, 1, 0, 0, 0, [1, 1, 1, 1, 1, 1, 1, 1]>, <34, 33, 34, 1, 0, 0, 0, [1, 1, 1, 1, 1, 1, 1, 1]>, <35, 34, 35, 1, 0, 0, 0, [1, 1, 1, 1, 1, 1, 1, 1]>, <36, 4, 17, 13, 1, 0, 0, [0, 0, 0, 1, 1, 0, 0, 0]>, <37, 5, 18, 13, 1, 0, 0, [0, 0, 0, 1, 1, 0, 0, 0]>, <38, 6, 19, 13, 1, 0, 0, [0, 0, 0, 1, 1, 0, 0, 0]>, <39, 13, 26, 13, 1, 0, 0, [0, 0, 0, 1, 1, 0, 0, 0]>, <40, 14, 27, 13, 1, 0, 0, [0, 0, 0, 1, 1, 0, 0, 0]>, <41, 15, 28, 13, 1, 0, 0, [0, 0, 0, 1, 1, 0, 0, 0]>, <42, 18, 31, 13, 1, 0, 0, [0, 0, 0, 1, 1, 0, 0, 0]>, <43, 19, 32, 13, 1, 0, 0, [0, 0, 0, 1, 1, 0, 0, 0]>, <44, 20, 33, 13, 1, 0, 0, [0, 0, 0, 1, 1, 0, 0, 0]>, <45, 21, 34, 13, 1, 0, 0, [0, 0, 0, 1, 1, 0, 0, 0]>, <46, 22, 35, 13, 1, 0, 0, [0, 0, 0, 1, 1, 0, 0, 0]>, <47, 2, 17, 15, 2, 0, 1, [1, 1, 0, 0, 0, 0, 0, 0]>, <48, 3, 18, 15, 2, 0, 1, [1, 1, 0, 0, 0, 0, 0, 0]>, <49, 4, 19, 15, 2, 0, 1, [1, 1, 0, 0, 0, 0, 0, 0]>, <50, 5, 20, 15, 2, 0, 1, [1, 1, 0, 0, 0, 0, 0, 0]>, <51, 6, 21, 15, 2, 0, 1, [1, 1, 0, 0, 0, 0, 0, 0]>, <52, 11, 26, 15, 2, 0, 1, [1, 1, 0, 0, 0, 0, 0, 0]>, <53, 12, 27, 15, 2, 0, 1, [1, 1, 0, 0, 0, 0, 0, 0]>, <54, 13, 28, 15, 2, 0, 1, [1, 1, 0, 0, 0, 0, 0, 0]>, <55, 14, 29, 15, 2, 0, 1, [1, 1, 0, 0, 0, 0, 0, 0]>, <56, 15, 30, 15, 2, 0, 1, [1, 1, 0, 0, 0, 0, 0, 0]>, <57, 16, 31, 15, 2, 0, 1, [1, 1, 0, 0, 0, 0, 0, 0]>, <58, 17, 32, 15, 2, 0, 1, [1, 1, 0, 0, 0, 0, 0, 0]>, <59, 18, 33, 15, 2, 0, 1, [1, 1, 0, 0, 0, 0, 0, 0]>, <60, 19, 34, 15, 2, 0, 1, [1, 1, 0, 0, 0, 0, 0, 0]>, <61, 20, 35, 15, 2, 0, 1, [1, 1, 0, 0, 0, 0, 0, 0]>, <62, 1, 17, 16, 3, 0, 1, [0, 0, 0, 0, 0, 1, 1, 0]>, <63, 2, 18, 16, 3, 0, 1, [0, 0, 0, 0, 0, 1, 1, 0]>, <64, 3, 19, 16, 3, 0, 1, [0, 0, 0, 0, 0, 1, 1, 0]>, <65, 4, 20, 16, 3, 0, 1, [0, 0, 0, 0, 0, 1, 1, 0]>, <66, 5, 21, 16, 3, 0, 1, [0, 0, 0, 0, 0, 1, 1, 0]>, <67, 6, 22, 16, 3, 0, 1, [0, 0, 0, 0, 0, 1, 1, 0]>, <68, 10, 26, 16, 3, 0, 1, [0, 0, 0, 0, 0, 1, 1, 0]>, <69, 11, 27, 16, 3, 0, 1, [0, 0, 0, 0, 0, 1, 1, 0]>, <70, 12, 28, 16, 3, 0, 1, [0, 0, 0, 0, 0, 1, 1, 0]>, <71, 13, 29, 16, 3, 0, 1, [0, 0, 0, 0, 0, 1, 1, 0]>, <72, 14, 30, 16, 3, 0, 1, [0, 0, 0, 0, 0, 1, 1, 0]>, <73, 15, 31, 16, 3, 0, 1, [0, 0, 0, 0, 0, 1, 1, 0]>, <74, 16, 32, 16, 3, 0, 1, [0, 0, 0, 0, 0, 1, 1, 0]>, <75, 17, 33, 16, 3, 0, 1, [0, 0, 0, 0, 0, 1, 1, 0]>, <76, 18, 34, 16, 3, 0, 1, [0, 0, 0, 0, 0, 1, 1, 0]>, <77, 19, 35, 16, 3, 0, 1, [0, 0, 0, 0, 0, 1, 1, 0]>, <78, 0, 17, 17, 4, 1, 0, [0, 0, 0, 1, 1, 0, 0, 0]>, <79, 1, 18, 17, 4, 1, 0, [0, 0, 0, 1, 1, 0, 0, 0]>, <80, 2, 19, 17, 4, 1, 0, [0, 0, 0, 1, 1, 0, 0, 0]>, <81, 3, 20, 17, 4, 1, 0, [0, 0, 0, 1, 1, 0, 0, 0]>, <82, 4, 21, 17, 4, 1, 0, [0, 0, 0, 1, 1, 0, 0, 0]>, <83, 5, 22, 17, 4, 1, 0, [0, 0, 0, 1, 1, 0, 0, 0]>, <84, 6, 23, 17, 4, 1, 0, [0, 0, 0, 1, 1, 0, 0, 0]>, <85, 9, 26, 17, 4, 1, 0, [0, 0, 0, 1, 1, 0, 0, 0]>, <86, 10, 27, 17, 4, 1, 0, [0, 0, 0, 1, 1, 0, 0, 0]>, <87, 11, 28, 17, 4, 1, 0, [0, 0, 0, 1, 1, 0, 0, 0]>, <88, 12, 29, 17, 4, 1, 0, [0, 0, 0, 1, 1, 0, 0, 0]>, <89, 13, 30, 17, 4, 1, 0, [0, 0, 0, 1, 1, 0, 0, 0]>, <90, 14, 31, 17, 4, 1, 0, [0, 0, 0, 1, 1, 0, 0, 0]>, <91, 15, 32, 17, 4, 1, 0, [0, 0, 0, 1, 1, 0, 0, 0]>, <92, 16, 33, 17, 4, 1, 0, [0, 0, 0, 1, 1, 0, 0, 0]>, <93, 17, 34, 17, 4, 1, 0, [0, 0, 0, 1, 1, 0, 0, 0]>, <94, 18, 35, 17, 4, 1, 0, [0, 0, 0, 1, 1, 0, 0, 0]>, <95, 0, 18, 18, 5, 0, 0, [0, 1, 1, 0, 0, 0, 0, 0]>, <96, 1, 19, 18, 5, 0, 0, [0, 1, 1, 0, 0, 0, 0, 0]>, <97, 2, 20, 18, 5, 0, 0, [0, 1, 1, 0, 0, 0, 0, 0]>, <98, 3, 21, 18, 5, 0, 0, [0, 1, 1, 0, 0, 0, 0, 0]>, <99, 4, 22, 18, 5, 0, 0, [0, 1, 1, 0, 0, 0, 0, 0]>, <100, 5, 23, 18, 5, 0, 0, [0, 1, 1, 0, 0, 0, 0, 0]>, <101, 6, 24, 18, 5, 0, 0, [0, 1, 1, 0, 0, 0, 0, 0]>, <102, 8, 26, 18, 5, 0, 0, [0, 1, 1, 0, 0, 0, 0, 0]>, <103, 9, 27, 18, 5, 0, 0, [0, 1, 1, 0, 0, 0, 0, 0]>, <104, 10, 28, 18, 5, 0, 0, [0, 1, 1, 0, 0, 0, 0, 0]>, <105, 11, 29, 18, 5, 0, 0, [0, 1, 1, 0, 0, 0, 0, 0]>, <106, 12, 30, 18, 5, 0, 0, [0, 1, 1, 0, 0, 0, 0, 0]>, <107, 13, 31, 18, 5, 0, 0, [0, 1, 1, 0, 0, 0, 0, 0]>, <108, 14, 32, 18, 5, 0, 0, [0, 1, 1, 0, 0, 0, 0, 0]>, <109, 15, 33, 18, 5, 0, 0, [0, 1, 1, 0, 0, 0, 0, 0]>, <110, 16, 34, 18, 5, 0, 0, [0, 1, 1, 0, 0, 0, 0, 0]>, <111, 17, 35, 18, 5, 0, 0, [0, 1, 1, 0, 0, 0, 0, 0]>, <112, 4, 17, 13, 6, 0, 1, [1, 1, 0, 0, 0, 0, 0, 0]>, <113, 5, 18, 13, 6, 0, 1, [1, 1, 0, 0, 0, 0, 0, 0]>, <114, 6, 19, 13, 6, 0, 1, [1, 1, 0, 0, 0, 0, 0, 0]>, <115, 13, 26, 13, 6, 0, 1, [1, 1, 0, 0, 0, 0, 0, 0]>, <116, 14, 27, 13, 6, 0, 1, [1, 1, 0, 0, 0, 0, 0, 0]>, <117, 15, 28, 13, 6, 0, 1, [1, 1, 0, 0, 0, 0, 0, 0]>, <118, 18, 31, 13, 6, 0, 1, [1, 1, 0, 0, 0, 0, 0, 0]>, <119, 19, 32, 13, 6, 0, 1, [1, 1, 0, 0, 0, 0, 0, 0]>, <120, 20, 33, 13, 6, 0, 1, [1, 1, 0, 0, 0, 0, 0, 0]>, <121, 21, 34, 13, 6, 0, 1, [1, 1, 0, 0, 0, 0, 0, 0]>, <122, 22, 35, 13, 6, 0, 1, [1, 1, 0, 0, 0, 0, 0, 0]>, <123, 0, 17, 17, 7, 0, 0, [0, 0, 1, 1, 0, 0, 0, 0]>, <124, 1, 18, 17, 7, 0, 0, [0, 0, 1, 1, 0, 0, 0, 0]>, <125, 2, 19, 17, 7, 0, 0, [0, 0, 1, 1, 0, 0, 0, 0]>, <126, 3, 20, 17, 7, 0, 0, [0, 0, 1, 1, 0, 0, 0, 0]>, <127, 4, 21, 17, 7, 0, 0, [0, 0, 1, 1, 0, 0, 0, 0]>, <128, 5, 22, 17, 7, 0, 0, [0, 0, 1, 1, 0, 0, 0, 0]>, <129, 6, 23, 17, 7, 0, 0, [0, 0, 1, 1, 0, 0, 0, 0]>, <130, 9, 26, 17, 7, 0, 0, [0, 0, 1, 1, 0, 0, 0, 0]>, <131, 10, 27, 17, 7, 0, 0, [0, 0, 1, 1, 0, 0, 0, 0]>, <132, 11, 28, 17, 7, 0, 0, [0, 0, 1, 1, 0, 0, 0, 0]>, <133, 12, 29, 17, 7, 0, 0, [0, 0, 1, 1, 0, 0, 0, 0]>, <134, 13, 30, 17, 7, 0, 0, [0, 0, 1, 1, 0, 0, 0, 0]>, <135, 14, 31, 17, 7, 0, 0, [0, 0, 1, 1, 0, 0, 0, 0]>, <136, 15, 32, 17, 7, 0, 0, [0, 0, 1, 1, 0, 0, 0, 0]>, <137, 16, 33, 17, 7, 0, 0, [0, 0, 1, 1, 0, 0, 0, 0]>, <138, 17, 34, 17, 7, 0, 0, [0, 0, 1, 1, 0, 0, 0, 0]>, <139, 18, 35, 17, 7, 0, 0, [0, 0, 1, 1, 0, 0, 0, 0]>, <140, 1, 17, 16, 8, 0, 0, [0, 0, 0, 0, 0, 1, 1, 0]>, <141, 2, 18, 16, 8, 0, 0, [0, 0, 0, 0, 0, 1, 1, 0]>, <142, 3, 19, 16, 8, 0, 0, [0, 0, 0, 0, 0, 1, 1, 0]>, <143, 4, 20, 16, 8, 0, 0, [0, 0, 0, 0, 0, 1, 1, 0]>, <144, 5, 21, 16, 8, 0, 0, [0, 0, 0, 0, 0, 1, 1, 0]>, <145, 6, 22, 16, 8, 0, 0, [0, 0, 0, 0, 0, 1, 1, 0]>, <146, 10, 26, 16, 8, 0, 0, [0, 0, 0, 0, 0, 1, 1, 0]>, <147, 11, 27, 16, 8, 0, 0, [0, 0, 0, 0, 0, 1, 1, 0]>, <148, 12, 28, 16, 8, 0, 0, [0, 0, 0, 0, 0, 1, 1, 0]>, <149, 13, 29, 16, 8, 0, 0, [0, 0, 0, 0, 0, 1, 1, 0]>, <150, 14, 30, 16, 8, 0, 0, [0, 0, 0, 0, 0, 1, 1, 0]>, <151, 15, 31, 16, 8, 0, 0, [0, 0, 0, 0, 0, 1, 1, 0]>, <152, 16, 32, 16, 8, 0, 0, [0, 0, 0, 0, 0, 1, 1, 0]>, <153, 17, 33, 16, 8, 0, 0, [0, 0, 0, 0, 0, 1, 1, 0]>, <154, 18, 34, 16, 8, 0, 0, [0, 0, 0, 0, 0, 1, 1, 0]>, <155, 19, 35, 16, 8, 0, 0, [0, 0, 0, 0, 0, 1, 1, 0]>, <156, 3, 17, 14, 9, 1, 0, [1, 1, 0, 0, 0, 0, 0, 0]>, <157, 4, 18, 14, 9, 1, 0, [1, 1, 0, 0, 0, 0, 0, 0]>, <158, 5, 19, 14, 9, 1, 0, [1, 1, 0, 0, 0, 0, 0, 0]>, <159, 6, 20, 14, 9, 1, 0, [1, 1, 0, 0, 0, 0, 0, 0]>, <160, 12, 26, 14, 9, 1, 0, [1, 1, 0, 0, 0, 0, 0, 0]>, <161, 13, 27, 14, 9, 1, 0, [1, 1, 0, 0, 0, 0, 0, 0]>, <162, 14, 28, 14, 9, 1, 0, [1, 1, 0, 0, 0, 0, 0, 0]>, <163, 15, 29, 14, 9, 1, 0, [1, 1, 0, 0, 0, 0, 0, 0]>, <164, 17, 31, 14, 9, 1, 0, [1, 1, 0, 0, 0, 0, 0, 0]>, <165, 18, 32, 14, 9, 1, 0, [1, 1, 0, 0, 0, 0, 0, 0]>, <166, 19, 33, 14, 9, 1, 0, [1, 1, 0, 0, 0, 0, 0, 0]>, <167, 20, 34, 14, 9, 1, 0, [1, 1, 0, 0, 0, 0, 0, 0]>, <168, 21, 35, 14, 9, 1, 0, [1, 1, 0, 0, 0, 0, 0, 0]>, <169, 0, 18, 18, 10, 0, 1, [0, 0, 1, 1, 0, 0, 0, 0]>, <170, 1, 19, 18, 10, 0, 1, [0, 0, 1, 1, 0, 0, 0, 0]>, <171, 2, 20, 18, 10, 0, 1, [0, 0, 1, 1, 0, 0, 0, 0]>, <172, 3, 21, 18, 10, 0, 1, [0, 0, 1, 1, 0, 0, 0, 0]>, <173, 4, 22, 18, 10, 0, 1, [0, 0, 1, 1, 0, 0, 0, 0]>, <174, 5, 23, 18, 10, 0, 1, [0, 0, 1, 1, 0, 0, 0, 0]>, <175, 6, 24, 18, 10, 0, 1, [0, 0, 1, 1, 0, 0, 0, 0]>, <176, 8, 26, 18, 10, 0, 1, [0, 0, 1, 1, 0, 0, 0, 0]>, <177, 9, 27, 18, 10, 0, 1, [0, 0, 1, 1, 0, 0, 0, 0]>, <178, 10, 28, 18, 10, 0, 1, [0, 0, 1, 1, 0, 0, 0, 0]>, <179, 11, 29, 18, 10, 0, 1, [0, 0, 1, 1, 0, 0, 0, 0]>, <180, 12, 30, 18, 10, 0, 1, [0, 0, 1, 1, 0, 0, 0, 0]>, <181, 13, 31, 18, 10, 0, 1, [0, 0, 1, 1, 0, 0, 0, 0]>, <182, 14, 32, 18, 10, 0, 1, [0, 0, 1, 1, 0, 0, 0, 0]>, <183, 15, 33, 18, 10, 0, 1, [0, 0, 1, 1, 0, 0, 0, 0]>, <184, 16, 34, 18, 10, 0, 1, [0, 0, 1, 1, 0, 0, 0, 0]>, <185, 17, 35, 18, 10, 0, 1, [0, 0, 1, 1, 0, 0, 0, 0]>, <186, 0, 17, 17, 11, 0, 1, [0, 0, 1, 1, 0, 0, 0, 0]>, <187, 1, 18, 17, 11, 0, 1, [0, 0, 1, 1, 0, 0, 0, 0]>, <188, 2, 19, 17, 11, 0, 1, [0, 0, 1, 1, 0, 0, 0, 0]>, <189, 3, 20, 17, 11, 0, 1, [0, 0, 1, 1, 0, 0, 0, 0]>, <190, 4, 21, 17, 11, 0, 1, [0, 0, 1, 1, 0, 0, 0, 0]>, <191, 5, 22, 17, 11, 0, 1, [0, 0, 1, 1, 0, 0, 0, 0]>, <192, 6, 23, 17, 11, 0, 1, [0, 0, 1, 1, 0, 0, 0, 0]>, <193, 9, 26, 17, 11, 0, 1, [0, 0, 1, 1, 0, 0, 0, 0]>, <194, 10, 27, 17, 11, 0, 1, [0, 0, 1, 1, 0, 0, 0, 0]>, <195, 11, 28, 17, 11, 0, 1, [0, 0, 1, 1, 0, 0, 0, 0]>, <196, 12, 29, 17, 11, 0, 1, [0, 0, 1, 1, 0, 0, 0, 0]>, <197, 13, 30, 17, 11, 0, 1, [0, 0, 1, 1, 0, 0, 0, 0]>, <198, 14, 31, 17, 11, 0, 1, [0, 0, 1, 1, 0, 0, 0, 0]>, <199, 15, 32, 17, 11, 0, 1, [0, 0, 1, 1, 0, 0, 0, 0]>, <200, 16, 33, 17, 11, 0, 1, [0, 0, 1, 1, 0, 0, 0, 0]>, <201, 17, 34, 17, 11, 0, 1, [0, 0, 1, 1, 0, 0, 0, 0]>, <202, 18, 35, 17, 11, 0, 1, [0, 0, 1, 1, 0, 0, 0, 0]>, <203, 1, 17, 16, 12, 0, 0, [0, 0, 1, 1, 0, 0, 0, 0]>, <204, 2, 18, 16, 12, 0, 0, [0, 0, 1, 1, 0, 0, 0, 0]>, <205, 3, 19, 16, 12, 0, 0, [0, 0, 1, 1, 0, 0, 0, 0]>, <206, 4, 20, 16, 12, 0, 0, [0, 0, 1, 1, 0, 0, 0, 0]>, <207, 5, 21, 16, 12, 0, 0, [0, 0, 1, 1, 0, 0, 0, 0]>, <208, 6, 22, 16, 12, 0, 0, [0, 0, 1, 1, 0, 0, 0, 0]>, <209, 10, 26, 16, 12, 0, 0, [0, 0, 1, 1, 0, 0, 0, 0]>, <210, 11, 27, 16, 12, 0, 0, [0, 0, 1, 1, 0, 0, 0, 0]>, <211, 12, 28, 16, 12, 0, 0, [0, 0, 1, 1, 0, 0, 0, 0]>, <212, 13, 29, 16, 12, 0, 0, [0, 0, 1, 1, 0, 0, 0, 0]>, <213, 14, 30, 16, 12, 0, 0, [0, 0, 1, 1, 0, 0, 0, 0]>, <214, 15, 31, 16, 12, 0, 0, [0, 0, 1, 1, 0, 0, 0, 0]>, <215, 16, 32, 16, 12, 0, 0, [0, 0, 1, 1, 0, 0, 0, 0]>, <216, 17, 33, 16, 12, 0, 0, [0, 0, 1, 1, 0, 0, 0, 0]>, <217, 18, 34, 16, 12, 0, 0, [0, 0, 1, 1, 0, 0, 0, 0]>, <218, 19, 35, 16, 12, 0, 0, [0, 0, 1, 1, 0, 0, 0, 0]>, <219, 0, 18, 18, 13, 0, 0, [0, 0, 0, 0, 0, 0, 1, 1]>, <220, 1, 19, 18, 13, 0, 0, [0, 0, 0, 0, 0, 0, 1, 1]>, <221, 2, 20, 18, 13, 0, 0, [0, 0, 0, 0, 0, 0, 1, 1]>, <222, 3, 21, 18, 13, 0, 0, [0, 0, 0, 0, 0, 0, 1, 1]>, <223, 4, 22, 18, 13, 0, 0, [0, 0, 0, 0, 0, 0, 1, 1]>, <224, 5, 23, 18, 13, 0, 0, [0, 0, 0, 0, 0, 0, 1, 1]>, <225, 6, 24, 18, 13, 0, 0, [0, 0, 0, 0, 0, 0, 1, 1]>, <226, 8, 26, 18, 13, 0, 0, [0, 0, 0, 0, 0, 0, 1, 1]>, <227, 9, 27, 18, 13, 0, 0, [0, 0, 0, 0, 0, 0, 1, 1]>, <228, 10, 28, 18, 13, 0, 0, [0, 0, 0, 0, 0, 0, 1, 1]>, <229, 11, 29, 18, 13, 0, 0, [0, 0, 0, 0, 0, 0, 1, 1]>, <230, 12, 30, 18, 13, 0, 0, [0, 0, 0, 0, 0, 0, 1, 1]>, <231, 13, 31, 18, 13, 0, 0, [0, 0, 0, 0, 0, 0, 1, 1]>, <232, 14, 32, 18, 13, 0, 0, [0, 0, 0, 0, 0, 0, 1, 1]>, <233, 15, 33, 18, 13, 0, 0, [0, 0, 0, 0, 0, 0, 1, 1]>, <234, 16, 34, 18, 13, 0, 0, [0, 0, 0, 0, 0, 0, 1, 1]>, <235, 17, 35, 18, 13, 0, 0, [0, 0, 0, 0, 0, 0, 1, 1]>, <236, 2, 17, 15, 14, 1, 0, [0, 1, 1, 0, 0, 0, 0, 0]>, <237, 3, 18, 15, 14, 1, 0, [0, 1, 1, 0, 0, 0, 0, 0]>, <238, 4, 19, 15, 14, 1, 0, [0, 1, 1, 0, 0, 0, 0, 0]>, <239, 5, 20, 15, 14, 1, 0, [0, 1, 1, 0, 0, 0, 0, 0]>, <240, 6, 21, 15, 14, 1, 0, [0, 1, 1, 0, 0, 0, 0, 0]>, <241, 11, 26, 15, 14, 1, 0, [0, 1, 1, 0, 0, 0, 0, 0]>, <242, 12, 27, 15, 14, 1, 0, [0, 1, 1, 0, 0, 0, 0, 0]>, <243, 13, 28, 15, 14, 1, 0, [0, 1, 1, 0, 0, 0, 0, 0]>, <244, 14, 29, 15, 14, 1, 0, [0, 1, 1, 0, 0, 0, 0, 0]>, <245, 15, 30, 15, 14, 1, 0, [0, 1, 1, 0, 0, 0, 0, 0]>, <246, 16, 31, 15, 14, 1, 0, [0, 1, 1, 0, 0, 0, 0, 0]>, <247, 17, 32, 15, 14, 1, 0, [0, 1, 1, 0, 0, 0, 0, 0]>, <248, 18, 33, 15, 14, 1, 0, [0, 1, 1, 0, 0, 0, 0, 0]>, <249, 19, 34, 15, 14, 1, 0, [0, 1, 1, 0, 0, 0, 0, 0]>, <250, 20, 35, 15, 14, 1, 0, [0, 1, 1, 0, 0, 0, 0, 0]>, <251, 0, 18, 18, 15, 0, 0, [0, 0, 0, 0, 0, 1, 1, 0]>, <252, 1, 19, 18, 15, 0, 0, [0, 0, 0, 0, 0, 1, 1, 0]>, <253, 2, 20, 18, 15, 0, 0, [0, 0, 0, 0, 0, 1, 1, 0]>, <254, 3, 21, 18, 15, 0, 0, [0, 0, 0, 0, 0, 1, 1, 0]>, <255, 4, 22, 18, 15, 0, 0, [0, 0, 0, 0, 0, 1, 1, 0]>, <256, 5, 23, 18, 15, 0, 0, [0, 0, 0, 0, 0, 1, 1, 0]>, <257, 6, 24, 18, 15, 0, 0, [0, 0, 0, 0, 0, 1, 1, 0]>, <258, 8, 26, 18, 15, 0, 0, [0, 0, 0, 0, 0, 1, 1, 0]>, <259, 9, 27, 18, 15, 0, 0, [0, 0, 0, 0, 0, 1, 1, 0]>, <260, 10, 28, 18, 15, 0, 0, [0, 0, 0, 0, 0, 1, 1, 0]>, <261, 11, 29, 18, 15, 0, 0, [0, 0, 0, 0, 0, 1, 1, 0]>, <262, 12, 30, 18, 15, 0, 0, [0, 0, 0, 0, 0, 1, 1, 0]>, <263, 13, 31, 18, 15, 0, 0, [0, 0, 0, 0, 0, 1, 1, 0]>, <264, 14, 32, 18, 15, 0, 0, [0, 0, 0, 0, 0, 1, 1, 0]>, <265, 15, 33, 18, 15, 0, 0, [0, 0, 0, 0, 0, 1, 1, 0]>, <266, 16, 34, 18, 15, 0, 0, [0, 0, 0, 0, 0, 1, 1, 0]>, <267, 17, 35, 18, 15, 0, 0, [0, 0, 0, 0, 0, 1, 1, 0]>, <268, 1, 17, 16, 16, 1, 0, [0, 0, 1, 1, 0, 0, 0, 0]>, <269, 2, 18, 16, 16, 1, 0, [0, 0, 1, 1, 0, 0, 0, 0]>, <270, 3, 19, 16, 16, 1, 0, [0, 0, 1, 1, 0, 0, 0, 0]>, <271, 4, 20, 16, 16, 1, 0, [0, 0, 1, 1, 0, 0, 0, 0]>, <272, 5, 21, 16, 16, 1, 0, [0, 0, 1, 1, 0, 0, 0, 0]>, <273, 6, 22, 16, 16, 1, 0, [0, 0, 1, 1, 0, 0, 0, 0]>, <274, 10, 26, 16, 16, 1, 0, [0, 0, 1, 1, 0, 0, 0, 0]>, <275, 11, 27, 16, 16, 1, 0, [0, 0, 1, 1, 0, 0, 0, 0]>, <276, 12, 28, 16, 16, 1, 0, [0, 0, 1, 1, 0, 0, 0, 0]>, <277, 13, 29, 16, 16, 1, 0, [0, 0, 1, 1, 0, 0, 0, 0]>, <278, 14, 30, 16, 16, 1, 0, [0, 0, 1, 1, 0, 0, 0, 0]>, <279, 15, 31, 16, 16, 1, 0, [0, 0, 1, 1, 0, 0, 0, 0]>, <280, 16, 32, 16, 16, 1, 0, [0, 0, 1, 1, 0, 0, 0, 0]>, <281, 17, 33, 16, 16, 1, 0, [0, 0, 1, 1, 0, 0, 0, 0]>, <282, 18, 34, 16, 16, 1, 0, [0, 0, 1, 1, 0, 0, 0, 0]>, <283, 19, 35, 16, 16, 1, 0, [0, 0, 1, 1, 0, 0, 0, 0]>, <284, 3, 17, 14, 17, 0, 0, [0, 0, 0, 0, 0, 1, 1, 0]>, <285, 4, 18, 14, 17, 0, 0, [0, 0, 0, 0, 0, 1, 1, 0]>, <286, 5, 19, 14, 17, 0, 0, [0, 0, 0, 0, 0, 1, 1, 0]>, <287, 6, 20, 14, 17, 0, 0, [0, 0, 0, 0, 0, 1, 1, 0]>, <288, 12, 26, 14, 17, 0, 0, [0, 0, 0, 0, 0, 1, 1, 0]>, <289, 13, 27, 14, 17, 0, 0, [0, 0, 0, 0, 0, 1, 1, 0]>, <290, 14, 28, 14, 17, 0, 0, [0, 0, 0, 0, 0, 1, 1, 0]>, <291, 15, 29, 14, 17, 0, 0, [0, 0, 0, 0, 0, 1, 1, 0]>, <292, 17, 31, 14, 17, 0, 0, [0, 0, 0, 0, 0, 1, 1, 0]>, <293, 18, 32, 14, 17, 0, 0, [0, 0, 0, 0, 0, 1, 1, 0]>, <294, 19, 33, 14, 17, 0, 0, [0, 0, 0, 0, 0, 1, 1, 0]>, <295, 20, 34, 14, 17, 0, 0, [0, 0, 0, 0, 0, 1, 1, 0]>, <296, 21, 35, 14, 17, 0, 0, [0, 0, 0, 0, 0, 1, 1, 0]>, <297, 0, 18, 18, 18, 1, 0, [0, 1, 1, 0, 0, 0, 0, 0]>, <298, 1, 19, 18, 18, 1, 0, [0, 1, 1, 0, 0, 0, 0, 0]>, <299, 2, 20, 18, 18, 1, 0, [0, 1, 1, 0, 0, 0, 0, 0]>, <300, 3, 21, 18, 18, 1, 0, [0, 1, 1, 0, 0, 0, 0, 0]>, <301, 4, 22, 18, 18, 1, 0, [0, 1, 1, 0, 0, 0, 0, 0]>, <302, 5, 23, 18, 18, 1, 0, [0, 1, 1, 0, 0, 0, 0, 0]>, <303, 6, 24, 18, 18, 1, 0, [0, 1, 1, 0, 0, 0, 0, 0]>, <304, 8, 26, 18, 18, 1, 0, [0, 1, 1, 0, 0, 0, 0, 0]>, <305, 9, 27, 18, 18, 1, 0, [0, 1, 1, 0, 0, 0, 0, 0]>, <306, 10, 28, 18, 18, 1, 0, [0, 1, 1, 0, 0, 0, 0, 0]>, <307, 11, 29, 18, 18, 1, 0, [0, 1, 1, 0, 0, 0, 0, 0]>, <308, 12, 30, 18, 18, 1, 0, [0, 1, 1, 0, 0, 0, 0, 0]>, <309, 13, 31, 18, 18, 1, 0, [0, 1, 1, 0, 0, 0, 0, 0]>, <310, 14, 32, 18, 18, 1, 0, [0, 1, 1, 0, 0, 0, 0, 0]>, <311, 15, 33, 18, 18, 1, 0, [0, 1, 1, 0, 0, 0, 0, 0]>, <312, 16, 34, 18, 18, 1, 0, [0, 1, 1, 0, 0, 0, 0, 0]>, <313, 17, 35, 18, 18, 1, 0, [0, 1, 1, 0, 0, 0, 0, 0]>, <314, 0, 18, 18, 19, 0, 0, [0, 0, 0, 0, 0, 0, 1, 1]>, <315, 1, 19, 18, 19, 0, 0, [0, 0, 0, 0, 0, 0, 1, 1]>, <316, 2, 20, 18, 19, 0, 0, [0, 0, 0, 0, 0, 0, 1, 1]>, <317, 3, 21, 18, 19, 0, 0, [0, 0, 0, 0, 0, 0, 1, 1]>, <318, 4, 22, 18, 19, 0, 0, [0, 0, 0, 0, 0, 0, 1, 1]>, <319, 5, 23, 18, 19, 0, 0, [0, 0, 0, 0, 0, 0, 1, 1]>, <320, 6, 24, 18, 19, 0, 0, [0, 0, 0, 0, 0, 0, 1, 1]>, <321, 8, 26, 18, 19, 0, 0, [0, 0, 0, 0, 0, 0, 1, 1]>, <322, 9, 27, 18, 19, 0, 0, [0, 0, 0, 0, 0, 0, 1, 1]>, <323, 10, 28, 18, 19, 0, 0, [0, 0, 0, 0, 0, 0, 1, 1]>, <324, 11, 29, 18, 19, 0, 0, [0, 0, 0, 0, 0, 0, 1, 1]>, <325, 12, 30, 18, 19, 0, 0, [0, 0, 0, 0, 0, 0, 1, 1]>, <326, 13, 31, 18, 19, 0, 0, [0, 0, 0, 0, 0, 0, 1, 1]>, <327, 14, 32, 18, 19, 0, 0, [0, 0, 0, 0, 0, 0, 1, 1]>, <328, 15, 33, 18, 19, 0, 0, [0, 0, 0, 0, 0, 0, 1, 1]>, <329, 16, 34, 18, 19, 0, 0, [0, 0, 0, 0, 0, 0, 1, 1]>, <330, 17, 35, 18, 19, 0, 0, [0, 0, 0, 0, 0, 0, 1, 1]>, <331, 0, 18, 18, 20, 0, 0, [1, 0, 0, 0, 0, 0, 0, 1]>, <332, 1, 19, 18, 20, 0, 0, [1, 0, 0, 0, 0, 0, 0, 1]>, <333, 2, 20, 18, 20, 0, 0, [1, 0, 0, 0, 0, 0, 0, 1]>, <334, 3, 21, 18, 20, 0, 0, [1, 0, 0, 0, 0, 0, 0, 1]>, <335, 4, 22, 18, 20, 0, 0, [1, 0, 0, 0, 0, 0, 0, 1]>, <336, 5, 23, 18, 20, 0, 0, [1, 0, 0, 0, 0, 0, 0, 1]>, <337, 6, 24, 18, 20, 0, 0, [1, 0, 0, 0, 0, 0, 0, 1]>, <338, 8, 26, 18, 20, 0, 0, [1, 0, 0, 0, 0, 0, 0, 1]>, <339, 9, 27, 18, 20, 0, 0, [1, 0, 0, 0, 0, 0, 0, 1]>, <340, 10, 28, 18, 20, 0, 0, [1, 0, 0, 0, 0, 0, 0, 1]>, <341, 11, 29, 18, 20, 0, 0, [1, 0, 0, 0, 0, 0, 0, 1]>, <342, 12, 30, 18, 20, 0, 0, [1, 0, 0, 0, 0, 0, 0, 1]>, <343, 13, 31, 18, 20, 0, 0, [1, 0, 0, 0, 0, 0, 0, 1]>, <344, 14, 32, 18, 20, 0, 0, [1, 0, 0, 0, 0, 0, 0, 1]>, <345, 15, 33, 18, 20, 0, 0, [1, 0, 0, 0, 0, 0, 0, 1]>, <346, 16, 34, 18, 20, 0, 0, [1, 0, 0, 0, 0, 0, 0, 1]>, <347, 17, 35, 18, 20, 0, 0, [1, 0, 0, 0, 0, 0, 0, 1]>, <348, 4, 17, 13, 21, 0, 0, [0, 0, 0, 0, 0, 1, 1, 0]>, <349, 5, 18, 13, 21, 0, 0, [0, 0, 0, 0, 0, 1, 1, 0]>, <350, 6, 19, 13, 21, 0, 0, [0, 0, 0, 0, 0, 1, 1, 0]>, <351, 13, 26, 13, 21, 0, 0, [0, 0, 0, 0, 0, 1, 1, 0]>, <352, 14, 27, 13, 21, 0, 0, [0, 0, 0, 0, 0, 1, 1, 0]>, <353, 15, 28, 13, 21, 0, 0, [0, 0, 0, 0, 0, 1, 1, 0]>, <354, 18, 31, 13, 21, 0, 0, [0, 0, 0, 0, 0, 1, 1, 0]>, <355, 19, 32, 13, 21, 0, 0, [0, 0, 0, 0, 0, 1, 1, 0]>, <356, 20, 33, 13, 21, 0, 0, [0, 0, 0, 0, 0, 1, 1, 0]>, <357, 21, 34, 13, 21, 0, 0, [0, 0, 0, 0, 0, 1, 1, 0]>, <358, 22, 35, 13, 21, 0, 0, [0, 0, 0, 0, 0, 1, 1, 0]>};
